p cnf 125 1078
1 2 3 4 5 0
6 7 8 9 10 0
11 12 13 14 15 0
16 17 18 19 20 0
21 22 23 24 25 0
26 27 28 29 30 0
31 32 33 34 35 0
36 37 38 39 40 0
41 42 43 44 45 0
46 47 48 49 50 0
51 52 53 54 55 0
56 57 58 59 60 0
61 62 63 64 65 0
66 67 68 69 70 0
71 72 73 74 75 0
76 77 78 79 80 0
81 82 83 84 85 0
86 87 88 89 90 0
91 92 93 94 95 0
96 97 98 99 100 0
101 102 103 104 105 0
106 107 108 109 110 0
111 112 113 114 115 0
116 117 118 119 120 0
121 122 123 124 125 0
-1 -2 0
-1 -3 0
-1 -4 0
-1 -5 0
-2 -3 0
-2 -4 0
-2 -5 0
-3 -4 0
-3 -5 0
-4 -5 0
-6 -7 0
-6 -8 0
-6 -9 0
-6 -10 0
-7 -8 0
-7 -9 0
-7 -10 0
-8 -9 0
-8 -10 0
-9 -10 0
-11 -12 0
-11 -13 0
-11 -14 0
-11 -15 0
-12 -13 0
-12 -14 0
-12 -15 0
-13 -14 0
-13 -15 0
-14 -15 0
-16 -17 0
-16 -18 0
-16 -19 0
-16 -20 0
-17 -18 0
-17 -19 0
-17 -20 0
-18 -19 0
-18 -20 0
-19 -20 0
-21 -22 0
-21 -23 0
-21 -24 0
-21 -25 0
-22 -23 0
-22 -24 0
-22 -25 0
-23 -24 0
-23 -25 0
-24 -25 0
-26 -27 0
-26 -28 0
-26 -29 0
-26 -30 0
-27 -28 0
-27 -29 0
-27 -30 0
-28 -29 0
-28 -30 0
-29 -30 0
-31 -32 0
-31 -33 0
-31 -34 0
-31 -35 0
-32 -33 0
-32 -34 0
-32 -35 0
-33 -34 0
-33 -35 0
-34 -35 0
-36 -37 0
-36 -38 0
-36 -39 0
-36 -40 0
-37 -38 0
-37 -39 0
-37 -40 0
-38 -39 0
-38 -40 0
-39 -40 0
-41 -42 0
-41 -43 0
-41 -44 0
-41 -45 0
-42 -43 0
-42 -44 0
-42 -45 0
-43 -44 0
-43 -45 0
-44 -45 0
-46 -47 0
-46 -48 0
-46 -49 0
-46 -50 0
-47 -48 0
-47 -49 0
-47 -50 0
-48 -49 0
-48 -50 0
-49 -50 0
-51 -52 0
-51 -53 0
-51 -54 0
-51 -55 0
-52 -53 0
-52 -54 0
-52 -55 0
-53 -54 0
-53 -55 0
-54 -55 0
-56 -57 0
-56 -58 0
-56 -59 0
-56 -60 0
-57 -58 0
-57 -59 0
-57 -60 0
-58 -59 0
-58 -60 0
-59 -60 0
-61 -62 0
-61 -63 0
-61 -64 0
-61 -65 0
-62 -63 0
-62 -64 0
-62 -65 0
-63 -64 0
-63 -65 0
-64 -65 0
-66 -67 0
-66 -68 0
-66 -69 0
-66 -70 0
-67 -68 0
-67 -69 0
-67 -70 0
-68 -69 0
-68 -70 0
-69 -70 0
-71 -72 0
-71 -73 0
-71 -74 0
-71 -75 0
-72 -73 0
-72 -74 0
-72 -75 0
-73 -74 0
-73 -75 0
-74 -75 0
-76 -77 0
-76 -78 0
-76 -79 0
-76 -80 0
-77 -78 0
-77 -79 0
-77 -80 0
-78 -79 0
-78 -80 0
-79 -80 0
-81 -82 0
-81 -83 0
-81 -84 0
-81 -85 0
-82 -83 0
-82 -84 0
-82 -85 0
-83 -84 0
-83 -85 0
-84 -85 0
-86 -87 0
-86 -88 0
-86 -89 0
-86 -90 0
-87 -88 0
-87 -89 0
-87 -90 0
-88 -89 0
-88 -90 0
-89 -90 0
-91 -92 0
-91 -93 0
-91 -94 0
-91 -95 0
-92 -93 0
-92 -94 0
-92 -95 0
-93 -94 0
-93 -95 0
-94 -95 0
-96 -97 0
-96 -98 0
-96 -99 0
-96 -100 0
-97 -98 0
-97 -99 0
-97 -100 0
-98 -99 0
-98 -100 0
-99 -100 0
-101 -102 0
-101 -103 0
-101 -104 0
-101 -105 0
-102 -103 0
-102 -104 0
-102 -105 0
-103 -104 0
-103 -105 0
-104 -105 0
-106 -107 0
-106 -108 0
-106 -109 0
-106 -110 0
-107 -108 0
-107 -109 0
-107 -110 0
-108 -109 0
-108 -110 0
-109 -110 0
-111 -112 0
-111 -113 0
-111 -114 0
-111 -115 0
-112 -113 0
-112 -114 0
-112 -115 0
-113 -114 0
-113 -115 0
-114 -115 0
-116 -117 0
-116 -118 0
-116 -119 0
-116 -120 0
-117 -118 0
-117 -119 0
-117 -120 0
-118 -119 0
-118 -120 0
-119 -120 0
-121 -122 0
-121 -123 0
-121 -124 0
-121 -125 0
-122 -123 0
-122 -124 0
-122 -125 0
-123 -124 0
-123 -125 0
-124 -125 0
-1 -6 0
-1 -11 0
-1 -16 0
-1 -21 0
-6 -11 0
-6 -16 0
-6 -21 0
-11 -16 0
-11 -21 0
-16 -21 0
-2 -7 0
-2 -12 0
-2 -17 0
-2 -22 0
-7 -12 0
-7 -17 0
-7 -22 0
-12 -17 0
-12 -22 0
-17 -22 0
-3 -8 0
-3 -13 0
-3 -18 0
-3 -23 0
-8 -13 0
-8 -18 0
-8 -23 0
-13 -18 0
-13 -23 0
-18 -23 0
-4 -9 0
-4 -14 0
-4 -19 0
-4 -24 0
-9 -14 0
-9 -19 0
-9 -24 0
-14 -19 0
-14 -24 0
-19 -24 0
-5 -10 0
-5 -15 0
-5 -20 0
-5 -25 0
-10 -15 0
-10 -20 0
-10 -25 0
-15 -20 0
-15 -25 0
-20 -25 0
-26 -31 0
-26 -36 0
-26 -41 0
-26 -46 0
-31 -36 0
-31 -41 0
-31 -46 0
-36 -41 0
-36 -46 0
-41 -46 0
-27 -32 0
-27 -37 0
-27 -42 0
-27 -47 0
-32 -37 0
-32 -42 0
-32 -47 0
-37 -42 0
-37 -47 0
-42 -47 0
-28 -33 0
-28 -38 0
-28 -43 0
-28 -48 0
-33 -38 0
-33 -43 0
-33 -48 0
-38 -43 0
-38 -48 0
-43 -48 0
-29 -34 0
-29 -39 0
-29 -44 0
-29 -49 0
-34 -39 0
-34 -44 0
-34 -49 0
-39 -44 0
-39 -49 0
-44 -49 0
-30 -35 0
-30 -40 0
-30 -45 0
-30 -50 0
-35 -40 0
-35 -45 0
-35 -50 0
-40 -45 0
-40 -50 0
-45 -50 0
-51 -56 0
-51 -61 0
-51 -66 0
-51 -71 0
-56 -61 0
-56 -66 0
-56 -71 0
-61 -66 0
-61 -71 0
-66 -71 0
-52 -57 0
-52 -62 0
-52 -67 0
-52 -72 0
-57 -62 0
-57 -67 0
-57 -72 0
-62 -67 0
-62 -72 0
-67 -72 0
-53 -58 0
-53 -63 0
-53 -68 0
-53 -73 0
-58 -63 0
-58 -68 0
-58 -73 0
-63 -68 0
-63 -73 0
-68 -73 0
-54 -59 0
-54 -64 0
-54 -69 0
-54 -74 0
-59 -64 0
-59 -69 0
-59 -74 0
-64 -69 0
-64 -74 0
-69 -74 0
-55 -60 0
-55 -65 0
-55 -70 0
-55 -75 0
-60 -65 0
-60 -70 0
-60 -75 0
-65 -70 0
-65 -75 0
-70 -75 0
-76 -81 0
-76 -86 0
-76 -91 0
-76 -96 0
-81 -86 0
-81 -91 0
-81 -96 0
-86 -91 0
-86 -96 0
-91 -96 0
-77 -92 0
-77 -87 0
-77 -92 0
-77 -97 0
-82 -87 0
-82 -92 0
-82 -97 0
-87 -92 0
-87 -97 0
-92 -97 0
-78 -83 0
-78 -88 0
-78 -93 0
-78 -98 0
-83 -88 0
-83 -93 0
-83 -98 0
-88 -93 0
-88 -98 0
-93 -98 0
-79 -84 0
-79 -89 0
-79 -94 0
-79 -99 0
-84 -89 0
-84 -94 0
-84 -99 0
-89 -94 0
-89 -99 0
-94 -99 0
-80 -85 0
-80 -90 0
-80 -95 0
-80 -100 0
-85 -90 0
-85 -95 0
-85 -100 0
-90 -95 0
-90 -100 0
-95 -100 0
-101 -106 0
-101 -111 0
-101 -116 0
-101 -121 0
-106 -111 0
-106 -116 0
-106 -121 0
-111 -116 0
-111 -121 0
-116 -121 0
-102 -107 0
-102 -112 0
-102 -117 0
-102 -122 0
-107 -112 0
-107 -117 0
-107 -122 0
-112 -117 0
-112 -122 0
-117 -122 0
-103 -108 0
-103 -113 0
-103 -118 0
-103 -123 0
-108 -113 0
-108 -118 0
-108 -123 0
-113 -118 0
-113 -123 0
-118 -123 0
-104 -109 0
-104 -114 0
-104 -119 0
-104 -124 0
-109 -114 0
-109 -119 0
-109 -124 0
-114 -119 0
-114 -124 0
-119 -124 0
-105 -110 0
-105 -115 0
-105 -120 0
-105 -125 0
-110 -115 0
-110 -120 0
-110 -125 0
-115 -120 0
-115 -125 0
-120 -125 0
101 0
81 0
36 0
-117 0
-118 0
-1 -103 -7 107 0
-1 -103 -12 112 0
-1 -103 -17 117 0
-1 -103 -22 122 0
-2 -103 -8 107
-2 -103 -13 112 0
-2 -103 -18 117 0
-2 -103 -23 122 0
-3 -103 -9 107 0
-3 -103 -14 112 0
-3 -103 -19 117 0
-3 -103 -24 122 0
-4 -103 -10 107 0
-4 -103 -15 112 0
-4 -103 -20 117 0
-4 -103 -25 122 0
-6 -108 -2 102 0
-6 -108 -12 112 0
-6 -108 -17 117 0
-6 -108 -22 122 0
-7 -108 -3 102 0
-7 -108 -13 112 0
-7 -108 -18 117 0
-7 -108 -23 122 0
-8 -108 -4 102 0
-8 -108 -14 112 0
-8 -108 -19 117 0
-8 -108 -24 122 0
-9 -108 -5 102 0
-9 -108 -15 112 0
-9 -108 -20 117 0
-9 -108 -25 122 0
-11 -113 -2 102 0
-11 -113 -7 107 0
-11 -113 -17 117 0
-11 -113 -22 122 0
-12 -113 -3 102 0
-12 -113 -8 107 0
-12 -113 -18 117 0
-12 -113 -23 122 0
-13 -113 -4 102 0
-13 -113 -9 107 0
-13 -113 -19 117 0
-13 -113 -24 122 0
-14 -113 -5 102 0
-14 -113 -10 107 0
-14 -113 -20 117 0
-14 -113 -25 122 0
-16 -118 -2 102 0
-16 -118 -7 107 0
-16 -118 -12 112 0
-16 -118 -22 122 0
-17 -118 -3 102 0
-17 -118 -8 107 0
-17 -118 -13 112 0
-17 -118 -23 122 0
-18 -118 -4 102 0
-18 -118 -9 107 0
-18 -118 -14 112 0
-18 -118 -24 122 0
-19 -118 -5 102 0
-19 -118 -10 107 0
-19 -118 -15 112 0
-19 -118 -25 122 0
-21 -123 -2 102 0
-21 -123 -7 107 0
-21 -123 -12 112 0
-21 -123 -17 117 0
-22 -123 -3 102 0
-22 -123 -8 107 0
-22 -123 -13 112 0
-22 -123 -18 117 0
-23 -123 -4 102 0
-23 -123 -9 107 0
-23 -123 -14 112 0
-23 -123 -19 117 0
-24 -123 -5 102 0
-24 -123 -10 107 0
-24 -123 -15 112 0
-24 -123 -20 117 0
-103 27 0
-108 32 0
-113 37 0
-118 42 0
-123 47 0
-51 77 0
-56 82 0
-61 87 0
-66 92 0
-71 97 0
-104 52 0
-109 57 0
-114 62 0
-119 67 0
-124 72 0
-3 28 0
-8 33 0
-13 38 0
-18 43 0
-23 48 0
16 0
-1 -53 -7 83 0
-1 -53 -12 88 0
-1 -53 -17 93 0
-1 -53 -22 98 0
-2 -53 -6 83 0
-2 -53 -8 83 0
-2 -53 -11 88 0
-2 -53 -13 88 0
-2 -53 -16 93 0
-2 -53 -18 93 0
-2 -53 -21 98 0
-2 -53 -23 98 0
-3 -53 -7 83 0
-3 -53 -9 83 0
-3 -53 -12 88 0
-3 -53 -14 88 0
-3 -53 -17 93 0
-3 -53 -19 93 0
-3 -53 -22 98 0
-3 -53 -24 98 0
-4 -53 -8 83 0
-4 -53 -10 83 0
-4 -53 -13 88 0
-4 -53 -15 88 0
-4 -53 -18 93 0
-4 -53 -20 93 0
-4 -53 -23 98 0
-4 -53 -25 98 0
-5 -53 -9 83 0
-5 -53 -14 88 0
-5 -53 -19 93 0
-5 -53 -24 98 0
-6 -58 -2 78 0
-6 -58 -12 88 0
-6 -58 -17 93 0
-6 -58 -22 98 0
-7 -58 -1 78 0
-7 -58 -2 78 0
-7 -58 -11 88 0
-7 -58 -13 88 0
-7 -58 -16 93 0
-7 -58 -18 93 0
-7 -58 -21 98 0
-7 -58 -23 98 0
-8 -58 -2 78 0
-8 -58 -4 78 0
-8 -58 -12 88 0
-8 -58 -14 88 0
-8 -58 -17 93 0
-8 -58 -19 93 0
-8 -58 -22 98 0
-8 -58 -24 98 0
-9 -58 -3 78 0
-9 -58 -5 78 0
-9 -58 -13 88 0
-9 -58 -15 88 0
-9 -58 -18 93 0
-9 -58 -20 93 0
-9 -58 -23 98 0
-9 -58 -25 98 0
-10 -58 -4 78 0
-10 -58 -14 88 0
-10 -58 -19 93 0
-10 -58 -24 98 0
-11 -63 -2 78 0
-11 -63 -7 83 0
-11 -63 -17 93 0
-11 -63 -22 98 0
-12 -63 -1 78 0
-12 -63 -2 78 0
-12 -63 -6 83 0
-12 -63 -8 83 0
-12 -63 -16 93 0
-12 -63 -18 93 0
-12 -63 -21 98 0
-12 -63 -23 98 0
-13 -63 -2 78 0
-13 -63 -4 78 0
-13 -63 -7 83 0
-13 -63 -9 83 0
-13 -63 -17 93 0
-13 -63 -19 93 0
-13 -63 -22 98 0
-13 -63 -24 98 0
-14 -63 -3 78 0
-14 -63 -5 78 0
-14 -63 -8 83 0
-14 -63 -10 83 0
-14 -63 -18 93 0
-14 -63 -20 93 0
-14 -63 -23 98 0
-14 -63 -25 98 0
-15 -63 -4 78 0
-15 -63 -9 83 0
-15 -63 -19 93 0
-15 -63 -24 98 0
-16 -68 -2 78 0
-16 -68 -7 83 0
-16 -68 -12 88 0
-16 -68 -22 98 0
-17 -68 -1 78 0
-17 -68 -2 78 0
-17 -68 -6 83 0
-17 -68 -8 83 0
-17 -68 -11 88 0
-17 -68 -12 88 0
-17 -68 -21 98 0
-17 -68 -23 98 0
-18 -68 -2 78 0
-18 -68 -4 78 0
-18 -68 -7 83 0
-18 -68 -9 83 0
-18 -68 -12 88 0
-18 -68 -14 88 0
-18 -68 -22 98 0
-18 -68 -24 98 0
-19 -68 -3 78 0
-19 -68 -5 78 0
-19 -68 -8 83 0
-19 -68 -10 83 0
-19 -68 -13 88 0
-19 -68 -25 88 0
-19 -68 -23 98 0
-19 -68 -25 98 0
-20 -68 -4 78 0
-20 -68 -9 83 0
-20 -68 -14 88 0
-20 -68 -24 98 0
-21 -73 -2 78 0
-21 -73 -7 83 0
-21 -73 -12 88 0
-21 -73 -17 93 0
-22 -73 -1 78 0
-22 -73 -2 78 0
-22 -73 -6 83 0
-22 -73 -8 83 0
-22 -73 -11 88 0
-22 -73 -12 88 0
-22 -73 -16 93 0
-22 -73 -28 93 0
-23 -73 -2 78 0
-23 -73 -4 78 0
-23 -73 -7 83 0
-23 -73 -9 83 0
-23 -73 -12 88 0
-23 -73 -14 88 0
-23 -73 -17 93 0
-23 -73 -19 93 0
-24 -73 -3 78 0
-24 -73 -5 78 0
-24 -73 -8 83 0
-24 -73 -10 83 0
-24 -73 -13 88 0
-24 -73 -25 88 0
-24 -73 -18 93 0
-24 -73 -20 93 0
-25 -73 -4 78 0
-25 -73 -9 83 0
-25 -73 -14 88 0
-25 -73 -19 93 0
-1 -79 -7 57 0
-1 -79 -12 62 0
-1 -79 -17 67 0
-1 -79 -22 72 0
-2 -79 -6 57 0
-2 -79 -8 57 0
-2 -79 -11 62 0
-2 -79 -13 62 0
-2 -79 -16 67 0
-2 -79 -18 67 0
-2 -79 -21 72 0
-2 -79 -23 72 0
-3 -79 -7 57 0
-3 -79 -9 57 0
-3 -79 -12 62 0
-3 -79 -14 62 0
-3 -79 -17 67 0
-3 -79 -19 67 0
-3 -79 -22 72 0
-3 -79 -24 72 0
-4 -79 -8 57 0
-4 -79 -10 57 0
-4 -79 -13 62 0
-4 -79 -15 62 0
-4 -79 -18 67 0
-4 -79 -20 67 0
-4 -79 -23 72 0
-4 -79 -25 72 0
-5 -79 -9 57 0
-5 -79 -14 62 0
-5 -79 -19 67 0
-5 -79 -24 72 0
-6 -84 -2 52 0
-6 -84 -12 62 0
-6 -84 -17 67 0
-6 -84 -22 72 0
-7 -84 -1 52 0
-7 -84 -2 52 0
-7 -84 -11 62 0
-7 -84 -13 62 0
-7 -84 -16 67 0
-7 -84 -18 67 0
-7 -84 -21 72 0
-7 -84 -23 72 0
-8 -84 -2 52 0
-8 -84 -4 52 0
-8 -84 -12 62 0
-8 -84 -14 62 0
-8 -84 -17 67 0
-8 -84 -19 67 0
-8 -84 -22 72 0
-8 -84 -24 72 0
-9 -84 -3 52 0
-9 -84 -5 52 0
-9 -84 -13 62 0
-9 -84 -15 62 0
-9 -84 -18 67 0
-9 -84 -20 67 0
-9 -84 -23 72 0
-9 -84 -25 72 0
-10 -84 -4 52 0
-10 -84 -14 62 0
-10 -84 -19 67 0
-10 -84 -24 72 0
-11 -89 -2 52 0
-11 -89 -7 57 0
-11 -89 -17 67 0
-11 -89 -22 72 0
-12 -89 -1 52 0
-12 -89 -2 52 0
-12 -89 -6 57 0
-12 -89 -8 57 0
-12 -89 -16 67 0
-12 -89 -18 67 0
-12 -89 -21 72 0
-12 -89 -23 72 0
-13 -89 -2 52 0
-13 -89 -4 52 0
-13 -89 -7 57 0
-13 -89 -9 57 0
-13 -89 -17 67 0
-13 -89 -19 67 0
-13 -89 -22 72 0
-13 -89 -24 72 0
-14 -89 -3 52 0
-14 -89 -5 52 0
-14 -89 -8 57 0
-14 -89 -10 57 0
-14 -89 -18 67 0
-14 -89 -20 67 0
-14 -89 -23 72 0
-14 -89 -25 72 0
-15 -89 -4 52 0
-15 -89 -9 57 0
-15 -89 -19 67 0
-15 -89 -24 72 0
-16 -94 -2 52 0
-16 -94 -7 57 0
-16 -94 -12 62 0
-16 -94 -22 72 0
-17 -94 -1 52 0
-17 -94 -2 52 0
-17 -94 -6 57 0
-17 -94 -8 57 0
-17 -94 -11 62 0
-17 -94 -12 62 0
-17 -94 -21 72 0
-17 -94 -23 72 0
-18 -94 -2 52 0
-18 -94 -4 52 0
-18 -94 -7 57 0
-18 -94 -9 57 0
-18 -94 -12 62 0
-18 -94 -14 62 0
-18 -94 -22 72 0
-18 -94 -24 72 0
-19 -94 -3 52 0
-19 -94 -5 52 0
-19 -94 -8 57 0
-19 -94 -10 57 0
-19 -94 -13 62 0
-19 -94 -25 62 0
-19 -94 -23 72 0
-19 -94 -25 72 0
-20 -94 -4 52 0
-20 -94 -9 57 0
-20 -94 -14 62 0
-20 -94 -24 72 0
-21 -99 -2 52 0
-21 -99 -7 57 0
-21 -99 -12 62 0
-21 -99 -17 67 0
-22 -99 -1 52 0
-22 -99 -2 52 0
-22 -99 -6 57 0
-22 -99 -8 57 0
-22 -99 -11 62 0
-22 -99 -12 62 0
-22 -99 -16 67 0
-22 -99 -28 67 0
-23 -99 -2 52 0
-23 -99 -4 52 0
-23 -99 -7 57 0
-23 -99 -9 57 0
-23 -99 -12 62 0
-23 -99 -14 62 0
-23 -99 -17 67 0
-23 -99 -19 67 0
-24 -99 -3 52 0
-24 -99 -5 52 0
-24 -99 -8 57 0
-24 -99 -10 57 0
-24 -99 -13 62 0
-24 -99 -25 62 0
-24 -99 -18 67 0
-24 -99 -20 67 0
-25 -99 -4 52 0
-25 -99 -9 57 0
-25 -99 -14 62 0
-25 -99 -19 67 0
-54 29 0
-59 34 0
-64 39 0
-69 44 0
-74 49 0
75 0
-120 0
-1 -105 17 0
-2 -105 16 18 0
-3 -105 17 19 0
-4 -105 18 20 0
-5 -105 19 0 
-6 -110 17 0
-7 -110 16 18 0
-8 -110 17 19 0
-9 -110 18 20 0
-10 -110 19 0 
-11 -115 17 0
-12 -115 16 18 0
-13 -115 17 19 0
-14 -115 18 20 0
-15 -115 19 0 
-21 -125 17 0
-22 -125 16 18 0
-23 -125 17 19 0
-24 -125 18 20 0
-25 -125 19 0
-1 -53 -35 7 0
-2 -53 -35 6 8 0
-3 -53 -35 7 9 0
-4 -53 -35 8 10 0
-5 -53 -35 9 0
-1 -53 -40 12 0
-2 -53 -40 11 13 0
-3 -53 -40 12 14 0
-4 -53 -40 13 15 0
-5 -53 -40 14 0
-1 -53 -45 17 0
-2 -53 -45 16 18 0
-3 -53 -45 17 19 0
-4 -53 -45 18 20 0
-5 -53 -45 19 0
-1 -53 -50 22 0
-2 -53 -50 21 23 0
-3 -53 -50 22 24 0
-4 -53 -50 23 25 0
-5 -53 -50 24 0
-6 -58 -30 2 0
-7 -58 -30 1 3 0
-8 -58 -30 2 4 0
-9 -58 -30 3 15 0
-10 -58 -30 4 0
-6 -58 -40 12 0
-7 -58 -40 11 13 0
-8 -58 -40 12 14 0
-9 -58 -40 13 15 0
-10 -58 -40 14 0
-6 -58 -45 17 0
-7 -58 -45 16 18 0
-8 -58 -45 17 19 0
-9 -58 -45 18 20 0
-10 -58 -45 19 0
-6 -58 -50 22 0
-7 -58 -50 21 23 0
-8 -58 -50 22 24 0
-9 -58 -50 23 25 0
-10 -58 -50 24 0
-11 -63 -30 2 0
-12 -63 -30 1 3 0
-13 -63 -30 2 4 0
-14 -63 -30 3 15 0
-15 -63 -30 4 0
-11 -63 -35 7 0
-12 -63 -35 6 8 0
-13 -63 -35 7 9 0
-14 -63 -35 8 10 0
-15 -63 -35 9 0
-11 -63 -45 17 0
-12 -63 -45 16 18 0
-13 -63 -45 17 19 0
-14 -63 -45 18 20 0
-15 -63 -45 19 0
-11 -63 -50 22 0
-12 -63 -50 21 23 0
-13 -63 -50 22 24 0
-14 -63 -50 23 25 0
-15 -63 -50 24 0
-16 -68 -30 2 0
-17 -68 -30 1 3 0
-18 -68 -30 2 4 0
-19 -68 -30 3 15 0
-20 -68 -30 4 0
-16 -68 -35 7 0
-17 -68 -35 6 8 0
-18 -68 -35 7 9 0
-19 -68 -35 8 10 0
-20 -68 -35 9 0
-16 -68 -40 12 0
-17 -68 -40 11 13 0
-18 -68 -40 12 14 0
-19 -68 -40 13 15 0
-20 -68 -40 14 0
-16 -68 -50 22 0
-17 -68 -50 21 23 0
-18 -68 -50 22 24 0
-19 -68 -50 23 25 0
-20 -68 -50 24 0
-21 -73 -30 2 0
-22 -73 -30 1 3 0
-23 -73 -30 2 4 0
-24 -73 -30 3 15 0
-25 -73 -30 4 0
-21 -73 -35 7 0
-22 -73 -35 6 8 0
-23 -73 -35 7 9 0
-24 -73 -35 8 10 0
-25 -73 -35 9 0
-21 -73 -40 12 0
-22 -73 -40 11 13 0
-23 -73 -40 12 14 0
-24 -73 -40 13 15 0
-25 -73 -40 14 0
-21 -73 -45 17 0
-22 -73 -45 16 18 0
-23 -73 -45 17 19 0
-24 -73 -45 18 20 0
-25 -73 -45 19 0
-5 -103 0
-10 -108 0
-15 -113 0
-20 -118 0
-25 -123 0